
%FILE DATA:	Soccer Computational Problem for MiniZinc Models	%
%AUTHOR:	Jack Wall	%
%CONTACT:  	116397063@umail.ucc.ie			%
%LAST UPDATE:	03/03/2020, 16:38:38						%
%DESCRIPTION: 	66 games played with 44 games left				%


n=11; %number of teams

%Games to play
games=[|5,11|9,10|8,11|2,7|10,1|5,1|11,7|10,5|4,10|8,7|9,1|2,4|8,3|11,3|6,7|1,8|10,9|3,7|6,1|5,4|4,3|7,4|1,10|3,2|6,2|4,2|5,2|8,1|4,5|2,6|8,5|7,5|1,11|10,6|2,10|1,6|8,2|8,10|11,6|9,6|3,1|10,2|4,11|9,2|];

%Initial points
iPoints=[15,9,16,8,24,21,15,16,22,15,24];

%POSITION CONSTRAINTS
% [|teamID, operator, position|...]
% operators index:
%  1 for =  operator
%  2 for >  operator
%  3 for >= operator
%  4 for <  operator
%  5 for <= operator
positionConstraints=[|1,3,1|5,5,2|6,2,2|];